% Auto-generated by scripts/generate_dzn.py
% problem_type   = nonogram
% instance       = nonogram_77
% source_json    = instances_json/0_low_blowup/nonogram_77.json
% blowup         = 1.0767543859649122
% representation = DFA

mode = 0;

height = 15;
width = 20;
Q = 21;
S = 2;
row_q0 = [1, 1, 1, 1, 1, 1, 1, 1, 1, 1, 1, 1, 1, 1, 1];
row_F = [{14}, {16}, {15}, {15}, {16}, {18}, {13}, {16}, {15}, {20}, {17}, {15}, {13}, {17}, {16}];
col_q0 = [1, 1, 1, 1, 1, 1, 1, 1, 1, 1, 1, 1, 1, 1, 1, 1, 1, 1, 1, 1];
col_F = [{13}, {9}, {13}, {4}, {13}, {10}, {13}, {9}, {10}, {10}, {11}, {12}, {11}, {14}, {7}, {13}, {13}, {12}, {13}, {10}];
row_d_dfa = array3d(1..15, 1..21, 1..2, [
  % k = 1
    1, 2,
    3, 15,
    3, 4,
    5, 15,
    5, 6,
    7, 15,
    7, 8,
    9, 15,
    9, 10,
    15, 11,
    15, 12,
    13, 15,
    13, 14,
    14, 15,
    15, 15,
    0, 0,
    0, 0,
    0, 0,
    0, 0,
    0, 0,
    0, 0,

  % k = 2
    1, 2,
    3, 17,
    3, 4,
    17, 5,
    17, 6,
    7, 17,
    7, 8,
    9, 17,
    9, 10,
    17, 11,
    12, 17,
    12, 13,
    17, 14,
    15, 17,
    15, 16,
    16, 17,
    17, 17,
    0, 0,
    0, 0,
    0, 0,
    0, 0,

  % k = 3
    1, 2,
    3, 16,
    3, 4,
    5, 16,
    5, 6,
    7, 16,
    7, 8,
    9, 16,
    9, 10,
    11, 16,
    11, 12,
    16, 13,
    14, 16,
    14, 15,
    15, 16,
    16, 16,
    0, 0,
    0, 0,
    0, 0,
    0, 0,
    0, 0,

  % k = 4
    1, 2,
    16, 3,
    4, 16,
    4, 5,
    6, 16,
    6, 7,
    8, 16,
    8, 9,
    16, 10,
    16, 11,
    12, 16,
    12, 13,
    14, 16,
    14, 15,
    15, 16,
    16, 16,
    0, 0,
    0, 0,
    0, 0,
    0, 0,
    0, 0,

  % k = 5
    1, 2,
    3, 17,
    3, 4,
    17, 5,
    6, 17,
    6, 7,
    17, 8,
    17, 9,
    10, 17,
    10, 11,
    17, 12,
    13, 17,
    13, 14,
    15, 17,
    15, 16,
    16, 17,
    17, 17,
    0, 0,
    0, 0,
    0, 0,
    0, 0,

  % k = 6
    1, 2,
    19, 3,
    4, 19,
    4, 5,
    19, 6,
    7, 19,
    7, 8,
    9, 19,
    9, 10,
    19, 11,
    12, 19,
    12, 13,
    19, 14,
    19, 15,
    16, 19,
    16, 17,
    19, 18,
    18, 19,
    19, 19,
    0, 0,
    0, 0,

  % k = 7
    1, 2,
    3, 14,
    3, 4,
    14, 5,
    14, 6,
    7, 14,
    7, 8,
    9, 14,
    9, 10,
    11, 14,
    11, 12,
    14, 13,
    13, 14,
    14, 14,
    0, 0,
    0, 0,
    0, 0,
    0, 0,
    0, 0,
    0, 0,
    0, 0,

  % k = 8
    1, 2,
    3, 17,
    3, 4,
    5, 17,
    5, 6,
    17, 7,
    17, 8,
    9, 17,
    9, 10,
    11, 17,
    11, 12,
    13, 17,
    13, 14,
    17, 15,
    17, 16,
    16, 17,
    17, 17,
    0, 0,
    0, 0,
    0, 0,
    0, 0,

  % k = 9
    1, 2,
    3, 16,
    3, 4,
    5, 16,
    5, 6,
    16, 7,
    8, 16,
    8, 9,
    16, 10,
    11, 16,
    11, 12,
    16, 13,
    16, 14,
    16, 15,
    15, 16,
    16, 16,
    0, 0,
    0, 0,
    0, 0,
    0, 0,
    0, 0,

  % k = 10
    1, 2,
    21, 3,
    21, 4,
    5, 21,
    5, 6,
    7, 21,
    7, 8,
    21, 9,
    21, 10,
    21, 11,
    21, 12,
    13, 21,
    13, 14,
    21, 15,
    16, 21,
    16, 17,
    18, 21,
    18, 19,
    21, 20,
    20, 21,
    21, 21,

  % k = 11
    1, 2,
    3, 18,
    3, 4,
    18, 5,
    18, 6,
    18, 7,
    8, 18,
    8, 9,
    18, 10,
    11, 18,
    11, 12,
    18, 13,
    18, 14,
    18, 15,
    16, 18,
    16, 17,
    17, 18,
    18, 18,
    0, 0,
    0, 0,
    0, 0,

  % k = 12
    1, 2,
    3, 16,
    3, 4,
    5, 16,
    5, 6,
    16, 7,
    8, 16,
    8, 9,
    16, 10,
    11, 16,
    11, 12,
    13, 16,
    13, 14,
    16, 15,
    15, 16,
    16, 16,
    0, 0,
    0, 0,
    0, 0,
    0, 0,
    0, 0,

  % k = 13
    1, 2,
    3, 14,
    3, 4,
    5, 14,
    5, 6,
    7, 14,
    7, 8,
    9, 14,
    9, 10,
    11, 14,
    11, 12,
    14, 13,
    13, 14,
    14, 14,
    0, 0,
    0, 0,
    0, 0,
    0, 0,
    0, 0,
    0, 0,
    0, 0,

  % k = 14
    1, 2,
    3, 18,
    3, 4,
    5, 18,
    5, 6,
    18, 7,
    8, 18,
    8, 9,
    10, 18,
    10, 11,
    18, 12,
    13, 18,
    13, 14,
    18, 15,
    18, 16,
    18, 17,
    17, 18,
    18, 18,
    0, 0,
    0, 0,
    0, 0,

  % k = 15
    1, 2,
    17, 3,
    4, 17,
    4, 5,
    17, 6,
    7, 17,
    7, 8,
    9, 17,
    9, 10,
    11, 17,
    11, 12,
    13, 17,
    13, 14,
    17, 15,
    17, 16,
    16, 17,
    17, 17,
    0, 0,
    0, 0,
    0, 0,
    0, 0
]);
row_d_nfa = array3d(1..15, 1..21, 1..2, [
  % k = 1
    {}, {},
    {}, {},
    {}, {},
    {}, {},
    {}, {},
    {}, {},
    {}, {},
    {}, {},
    {}, {},
    {}, {},
    {}, {},
    {}, {},
    {}, {},
    {}, {},
    {}, {},
    {}, {},
    {}, {},
    {}, {},
    {}, {},
    {}, {},
    {}, {},

  % k = 2
    {}, {},
    {}, {},
    {}, {},
    {}, {},
    {}, {},
    {}, {},
    {}, {},
    {}, {},
    {}, {},
    {}, {},
    {}, {},
    {}, {},
    {}, {},
    {}, {},
    {}, {},
    {}, {},
    {}, {},
    {}, {},
    {}, {},
    {}, {},
    {}, {},

  % k = 3
    {}, {},
    {}, {},
    {}, {},
    {}, {},
    {}, {},
    {}, {},
    {}, {},
    {}, {},
    {}, {},
    {}, {},
    {}, {},
    {}, {},
    {}, {},
    {}, {},
    {}, {},
    {}, {},
    {}, {},
    {}, {},
    {}, {},
    {}, {},
    {}, {},

  % k = 4
    {}, {},
    {}, {},
    {}, {},
    {}, {},
    {}, {},
    {}, {},
    {}, {},
    {}, {},
    {}, {},
    {}, {},
    {}, {},
    {}, {},
    {}, {},
    {}, {},
    {}, {},
    {}, {},
    {}, {},
    {}, {},
    {}, {},
    {}, {},
    {}, {},

  % k = 5
    {}, {},
    {}, {},
    {}, {},
    {}, {},
    {}, {},
    {}, {},
    {}, {},
    {}, {},
    {}, {},
    {}, {},
    {}, {},
    {}, {},
    {}, {},
    {}, {},
    {}, {},
    {}, {},
    {}, {},
    {}, {},
    {}, {},
    {}, {},
    {}, {},

  % k = 6
    {}, {},
    {}, {},
    {}, {},
    {}, {},
    {}, {},
    {}, {},
    {}, {},
    {}, {},
    {}, {},
    {}, {},
    {}, {},
    {}, {},
    {}, {},
    {}, {},
    {}, {},
    {}, {},
    {}, {},
    {}, {},
    {}, {},
    {}, {},
    {}, {},

  % k = 7
    {}, {},
    {}, {},
    {}, {},
    {}, {},
    {}, {},
    {}, {},
    {}, {},
    {}, {},
    {}, {},
    {}, {},
    {}, {},
    {}, {},
    {}, {},
    {}, {},
    {}, {},
    {}, {},
    {}, {},
    {}, {},
    {}, {},
    {}, {},
    {}, {},

  % k = 8
    {}, {},
    {}, {},
    {}, {},
    {}, {},
    {}, {},
    {}, {},
    {}, {},
    {}, {},
    {}, {},
    {}, {},
    {}, {},
    {}, {},
    {}, {},
    {}, {},
    {}, {},
    {}, {},
    {}, {},
    {}, {},
    {}, {},
    {}, {},
    {}, {},

  % k = 9
    {}, {},
    {}, {},
    {}, {},
    {}, {},
    {}, {},
    {}, {},
    {}, {},
    {}, {},
    {}, {},
    {}, {},
    {}, {},
    {}, {},
    {}, {},
    {}, {},
    {}, {},
    {}, {},
    {}, {},
    {}, {},
    {}, {},
    {}, {},
    {}, {},

  % k = 10
    {}, {},
    {}, {},
    {}, {},
    {}, {},
    {}, {},
    {}, {},
    {}, {},
    {}, {},
    {}, {},
    {}, {},
    {}, {},
    {}, {},
    {}, {},
    {}, {},
    {}, {},
    {}, {},
    {}, {},
    {}, {},
    {}, {},
    {}, {},
    {}, {},

  % k = 11
    {}, {},
    {}, {},
    {}, {},
    {}, {},
    {}, {},
    {}, {},
    {}, {},
    {}, {},
    {}, {},
    {}, {},
    {}, {},
    {}, {},
    {}, {},
    {}, {},
    {}, {},
    {}, {},
    {}, {},
    {}, {},
    {}, {},
    {}, {},
    {}, {},

  % k = 12
    {}, {},
    {}, {},
    {}, {},
    {}, {},
    {}, {},
    {}, {},
    {}, {},
    {}, {},
    {}, {},
    {}, {},
    {}, {},
    {}, {},
    {}, {},
    {}, {},
    {}, {},
    {}, {},
    {}, {},
    {}, {},
    {}, {},
    {}, {},
    {}, {},

  % k = 13
    {}, {},
    {}, {},
    {}, {},
    {}, {},
    {}, {},
    {}, {},
    {}, {},
    {}, {},
    {}, {},
    {}, {},
    {}, {},
    {}, {},
    {}, {},
    {}, {},
    {}, {},
    {}, {},
    {}, {},
    {}, {},
    {}, {},
    {}, {},
    {}, {},

  % k = 14
    {}, {},
    {}, {},
    {}, {},
    {}, {},
    {}, {},
    {}, {},
    {}, {},
    {}, {},
    {}, {},
    {}, {},
    {}, {},
    {}, {},
    {}, {},
    {}, {},
    {}, {},
    {}, {},
    {}, {},
    {}, {},
    {}, {},
    {}, {},
    {}, {},

  % k = 15
    {}, {},
    {}, {},
    {}, {},
    {}, {},
    {}, {},
    {}, {},
    {}, {},
    {}, {},
    {}, {},
    {}, {},
    {}, {},
    {}, {},
    {}, {},
    {}, {},
    {}, {},
    {}, {},
    {}, {},
    {}, {},
    {}, {},
    {}, {},
    {}, {}
]);
col_d_dfa = array3d(1..20, 1..21, 1..2, [
  % k = 1
    1, 2,
    3, 14,
    3, 4,
    5, 14,
    5, 6,
    7, 14,
    7, 8,
    14, 9,
    10, 14,
    10, 11,
    14, 12,
    14, 13,
    13, 14,
    14, 14,
    0, 0,
    0, 0,
    0, 0,
    0, 0,
    0, 0,
    0, 0,
    0, 0,

  % k = 2
    1, 2,
    3, 10,
    3, 4,
    5, 10,
    5, 6,
    10, 7,
    8, 10,
    8, 9,
    9, 10,
    10, 10,
    0, 0,
    0, 0,
    0, 0,
    0, 0,
    0, 0,
    0, 0,
    0, 0,
    0, 0,
    0, 0,
    0, 0,
    0, 0,

  % k = 3
    1, 2,
    3, 14,
    3, 4,
    14, 5,
    6, 14,
    6, 7,
    8, 14,
    8, 9,
    14, 10,
    14, 11,
    12, 14,
    12, 13,
    13, 14,
    14, 14,
    0, 0,
    0, 0,
    0, 0,
    0, 0,
    0, 0,
    0, 0,
    0, 0,

  % k = 4
    1, 2,
    3, 5,
    3, 4,
    4, 5,
    5, 5,
    0, 0,
    0, 0,
    0, 0,
    0, 0,
    0, 0,
    0, 0,
    0, 0,
    0, 0,
    0, 0,
    0, 0,
    0, 0,
    0, 0,
    0, 0,
    0, 0,
    0, 0,
    0, 0,

  % k = 5
    1, 2,
    3, 14,
    3, 4,
    14, 5,
    14, 6,
    14, 7,
    14, 8,
    14, 9,
    14, 10,
    14, 11,
    12, 14,
    12, 13,
    13, 14,
    14, 14,
    0, 0,
    0, 0,
    0, 0,
    0, 0,
    0, 0,
    0, 0,
    0, 0,

  % k = 6
    1, 2,
    11, 3,
    4, 11,
    4, 5,
    6, 11,
    6, 7,
    8, 11,
    8, 9,
    11, 10,
    10, 11,
    11, 11,
    0, 0,
    0, 0,
    0, 0,
    0, 0,
    0, 0,
    0, 0,
    0, 0,
    0, 0,
    0, 0,
    0, 0,

  % k = 7
    1, 2,
    3, 14,
    3, 4,
    14, 5,
    6, 14,
    6, 7,
    14, 8,
    9, 14,
    9, 10,
    11, 14,
    11, 12,
    14, 13,
    13, 14,
    14, 14,
    0, 0,
    0, 0,
    0, 0,
    0, 0,
    0, 0,
    0, 0,
    0, 0,

  % k = 8
    1, 2,
    10, 3,
    10, 4,
    10, 5,
    10, 6,
    10, 7,
    10, 8,
    10, 9,
    9, 10,
    10, 10,
    0, 0,
    0, 0,
    0, 0,
    0, 0,
    0, 0,
    0, 0,
    0, 0,
    0, 0,
    0, 0,
    0, 0,
    0, 0,

  % k = 9
    1, 2,
    11, 3,
    4, 11,
    4, 5,
    11, 6,
    11, 7,
    11, 8,
    11, 9,
    11, 10,
    10, 11,
    11, 11,
    0, 0,
    0, 0,
    0, 0,
    0, 0,
    0, 0,
    0, 0,
    0, 0,
    0, 0,
    0, 0,
    0, 0,

  % k = 10
    1, 2,
    3, 11,
    3, 4,
    5, 11,
    5, 6,
    7, 11,
    7, 8,
    11, 9,
    11, 10,
    10, 11,
    11, 11,
    0, 0,
    0, 0,
    0, 0,
    0, 0,
    0, 0,
    0, 0,
    0, 0,
    0, 0,
    0, 0,
    0, 0,

  % k = 11
    1, 2,
    3, 12,
    3, 4,
    12, 5,
    12, 6,
    12, 7,
    8, 12,
    8, 9,
    10, 12,
    10, 11,
    11, 12,
    12, 12,
    0, 0,
    0, 0,
    0, 0,
    0, 0,
    0, 0,
    0, 0,
    0, 0,
    0, 0,
    0, 0,

  % k = 12
    1, 2,
    13, 3,
    13, 4,
    13, 5,
    6, 13,
    6, 7,
    8, 13,
    8, 9,
    13, 10,
    11, 13,
    11, 12,
    12, 13,
    13, 13,
    0, 0,
    0, 0,
    0, 0,
    0, 0,
    0, 0,
    0, 0,
    0, 0,
    0, 0,

  % k = 13
    1, 2,
    3, 12,
    3, 4,
    5, 12,
    5, 6,
    12, 7,
    12, 8,
    9, 12,
    9, 10,
    12, 11,
    11, 12,
    12, 12,
    0, 0,
    0, 0,
    0, 0,
    0, 0,
    0, 0,
    0, 0,
    0, 0,
    0, 0,
    0, 0,

  % k = 14
    1, 2,
    15, 3,
    15, 4,
    15, 5,
    15, 6,
    15, 7,
    8, 15,
    8, 9,
    15, 10,
    15, 11,
    12, 15,
    12, 13,
    15, 14,
    14, 15,
    15, 15,
    0, 0,
    0, 0,
    0, 0,
    0, 0,
    0, 0,
    0, 0,

  % k = 15
    1, 2,
    8, 3,
    4, 8,
    4, 5,
    6, 8,
    6, 7,
    7, 8,
    8, 8,
    0, 0,
    0, 0,
    0, 0,
    0, 0,
    0, 0,
    0, 0,
    0, 0,
    0, 0,
    0, 0,
    0, 0,
    0, 0,
    0, 0,
    0, 0,

  % k = 16
    1, 2,
    3, 14,
    3, 4,
    14, 5,
    6, 14,
    6, 7,
    8, 14,
    8, 9,
    14, 10,
    11, 14,
    11, 12,
    14, 13,
    13, 14,
    14, 14,
    0, 0,
    0, 0,
    0, 0,
    0, 0,
    0, 0,
    0, 0,
    0, 0,

  % k = 17
    1, 2,
    14, 3,
    14, 4,
    5, 14,
    5, 6,
    7, 14,
    7, 8,
    14, 9,
    14, 10,
    11, 14,
    11, 12,
    14, 13,
    13, 14,
    14, 14,
    0, 0,
    0, 0,
    0, 0,
    0, 0,
    0, 0,
    0, 0,
    0, 0,

  % k = 18
    1, 2,
    13, 3,
    4, 13,
    4, 5,
    13, 6,
    13, 7,
    13, 8,
    13, 9,
    10, 13,
    10, 11,
    13, 12,
    12, 13,
    13, 13,
    0, 0,
    0, 0,
    0, 0,
    0, 0,
    0, 0,
    0, 0,
    0, 0,
    0, 0,

  % k = 19
    1, 2,
    3, 14,
    3, 4,
    14, 5,
    14, 6,
    14, 7,
    14, 8,
    9, 14,
    9, 10,
    11, 14,
    11, 12,
    14, 13,
    13, 14,
    14, 14,
    0, 0,
    0, 0,
    0, 0,
    0, 0,
    0, 0,
    0, 0,
    0, 0,

  % k = 20
    1, 2,
    11, 3,
    4, 11,
    4, 5,
    11, 6,
    11, 7,
    11, 8,
    9, 11,
    9, 10,
    10, 11,
    11, 11,
    0, 0,
    0, 0,
    0, 0,
    0, 0,
    0, 0,
    0, 0,
    0, 0,
    0, 0,
    0, 0,
    0, 0
]);
col_d_nfa = array3d(1..20, 1..21, 1..2, [
  % k = 1
    {}, {},
    {}, {},
    {}, {},
    {}, {},
    {}, {},
    {}, {},
    {}, {},
    {}, {},
    {}, {},
    {}, {},
    {}, {},
    {}, {},
    {}, {},
    {}, {},
    {}, {},
    {}, {},
    {}, {},
    {}, {},
    {}, {},
    {}, {},
    {}, {},

  % k = 2
    {}, {},
    {}, {},
    {}, {},
    {}, {},
    {}, {},
    {}, {},
    {}, {},
    {}, {},
    {}, {},
    {}, {},
    {}, {},
    {}, {},
    {}, {},
    {}, {},
    {}, {},
    {}, {},
    {}, {},
    {}, {},
    {}, {},
    {}, {},
    {}, {},

  % k = 3
    {}, {},
    {}, {},
    {}, {},
    {}, {},
    {}, {},
    {}, {},
    {}, {},
    {}, {},
    {}, {},
    {}, {},
    {}, {},
    {}, {},
    {}, {},
    {}, {},
    {}, {},
    {}, {},
    {}, {},
    {}, {},
    {}, {},
    {}, {},
    {}, {},

  % k = 4
    {}, {},
    {}, {},
    {}, {},
    {}, {},
    {}, {},
    {}, {},
    {}, {},
    {}, {},
    {}, {},
    {}, {},
    {}, {},
    {}, {},
    {}, {},
    {}, {},
    {}, {},
    {}, {},
    {}, {},
    {}, {},
    {}, {},
    {}, {},
    {}, {},

  % k = 5
    {}, {},
    {}, {},
    {}, {},
    {}, {},
    {}, {},
    {}, {},
    {}, {},
    {}, {},
    {}, {},
    {}, {},
    {}, {},
    {}, {},
    {}, {},
    {}, {},
    {}, {},
    {}, {},
    {}, {},
    {}, {},
    {}, {},
    {}, {},
    {}, {},

  % k = 6
    {}, {},
    {}, {},
    {}, {},
    {}, {},
    {}, {},
    {}, {},
    {}, {},
    {}, {},
    {}, {},
    {}, {},
    {}, {},
    {}, {},
    {}, {},
    {}, {},
    {}, {},
    {}, {},
    {}, {},
    {}, {},
    {}, {},
    {}, {},
    {}, {},

  % k = 7
    {}, {},
    {}, {},
    {}, {},
    {}, {},
    {}, {},
    {}, {},
    {}, {},
    {}, {},
    {}, {},
    {}, {},
    {}, {},
    {}, {},
    {}, {},
    {}, {},
    {}, {},
    {}, {},
    {}, {},
    {}, {},
    {}, {},
    {}, {},
    {}, {},

  % k = 8
    {}, {},
    {}, {},
    {}, {},
    {}, {},
    {}, {},
    {}, {},
    {}, {},
    {}, {},
    {}, {},
    {}, {},
    {}, {},
    {}, {},
    {}, {},
    {}, {},
    {}, {},
    {}, {},
    {}, {},
    {}, {},
    {}, {},
    {}, {},
    {}, {},

  % k = 9
    {}, {},
    {}, {},
    {}, {},
    {}, {},
    {}, {},
    {}, {},
    {}, {},
    {}, {},
    {}, {},
    {}, {},
    {}, {},
    {}, {},
    {}, {},
    {}, {},
    {}, {},
    {}, {},
    {}, {},
    {}, {},
    {}, {},
    {}, {},
    {}, {},

  % k = 10
    {}, {},
    {}, {},
    {}, {},
    {}, {},
    {}, {},
    {}, {},
    {}, {},
    {}, {},
    {}, {},
    {}, {},
    {}, {},
    {}, {},
    {}, {},
    {}, {},
    {}, {},
    {}, {},
    {}, {},
    {}, {},
    {}, {},
    {}, {},
    {}, {},

  % k = 11
    {}, {},
    {}, {},
    {}, {},
    {}, {},
    {}, {},
    {}, {},
    {}, {},
    {}, {},
    {}, {},
    {}, {},
    {}, {},
    {}, {},
    {}, {},
    {}, {},
    {}, {},
    {}, {},
    {}, {},
    {}, {},
    {}, {},
    {}, {},
    {}, {},

  % k = 12
    {}, {},
    {}, {},
    {}, {},
    {}, {},
    {}, {},
    {}, {},
    {}, {},
    {}, {},
    {}, {},
    {}, {},
    {}, {},
    {}, {},
    {}, {},
    {}, {},
    {}, {},
    {}, {},
    {}, {},
    {}, {},
    {}, {},
    {}, {},
    {}, {},

  % k = 13
    {}, {},
    {}, {},
    {}, {},
    {}, {},
    {}, {},
    {}, {},
    {}, {},
    {}, {},
    {}, {},
    {}, {},
    {}, {},
    {}, {},
    {}, {},
    {}, {},
    {}, {},
    {}, {},
    {}, {},
    {}, {},
    {}, {},
    {}, {},
    {}, {},

  % k = 14
    {}, {},
    {}, {},
    {}, {},
    {}, {},
    {}, {},
    {}, {},
    {}, {},
    {}, {},
    {}, {},
    {}, {},
    {}, {},
    {}, {},
    {}, {},
    {}, {},
    {}, {},
    {}, {},
    {}, {},
    {}, {},
    {}, {},
    {}, {},
    {}, {},

  % k = 15
    {}, {},
    {}, {},
    {}, {},
    {}, {},
    {}, {},
    {}, {},
    {}, {},
    {}, {},
    {}, {},
    {}, {},
    {}, {},
    {}, {},
    {}, {},
    {}, {},
    {}, {},
    {}, {},
    {}, {},
    {}, {},
    {}, {},
    {}, {},
    {}, {},

  % k = 16
    {}, {},
    {}, {},
    {}, {},
    {}, {},
    {}, {},
    {}, {},
    {}, {},
    {}, {},
    {}, {},
    {}, {},
    {}, {},
    {}, {},
    {}, {},
    {}, {},
    {}, {},
    {}, {},
    {}, {},
    {}, {},
    {}, {},
    {}, {},
    {}, {},

  % k = 17
    {}, {},
    {}, {},
    {}, {},
    {}, {},
    {}, {},
    {}, {},
    {}, {},
    {}, {},
    {}, {},
    {}, {},
    {}, {},
    {}, {},
    {}, {},
    {}, {},
    {}, {},
    {}, {},
    {}, {},
    {}, {},
    {}, {},
    {}, {},
    {}, {},

  % k = 18
    {}, {},
    {}, {},
    {}, {},
    {}, {},
    {}, {},
    {}, {},
    {}, {},
    {}, {},
    {}, {},
    {}, {},
    {}, {},
    {}, {},
    {}, {},
    {}, {},
    {}, {},
    {}, {},
    {}, {},
    {}, {},
    {}, {},
    {}, {},
    {}, {},

  % k = 19
    {}, {},
    {}, {},
    {}, {},
    {}, {},
    {}, {},
    {}, {},
    {}, {},
    {}, {},
    {}, {},
    {}, {},
    {}, {},
    {}, {},
    {}, {},
    {}, {},
    {}, {},
    {}, {},
    {}, {},
    {}, {},
    {}, {},
    {}, {},
    {}, {},

  % k = 20
    {}, {},
    {}, {},
    {}, {},
    {}, {},
    {}, {},
    {}, {},
    {}, {},
    {}, {},
    {}, {},
    {}, {},
    {}, {},
    {}, {},
    {}, {},
    {}, {},
    {}, {},
    {}, {},
    {}, {},
    {}, {},
    {}, {},
    {}, {},
    {}, {}
]);
